c colouring generated by benchmark framework
p edge 161 295
v 1 1
v 2 1
v 3 0
v 4 2
v 5 1
v 6 0
v 7 3
v 8 0
v 9 0
v 10 3
v 11 0
v 12 0
v 13 2
v 14 1
v 15 1
v 16 2
v 17 3
v 18 1
v 19 0
v 20 1
v 21 1
v 22 2
v 23 2
v 24 1
v 25 2
v 26 1
v 27 3
v 28 0
v 29 1
v 30 2
v 31 1
v 32 3
v 33 2
v 34 3
v 35 2
v 36 0
v 37 3
v 38 3
v 39 3
v 40 0
v 41 0
v 42 0
v 43 0
v 44 1
v 45 0
v 46 0
v 47 0
v 48 0
v 49 1
v 50 1
v 51 1
v 52 1
v 53 1
v 54 3
v 55 0
v 56 2
v 57 2
v 58 1
v 59 3
v 60 0
v 61 1
v 62 2
v 63 1
v 64 1
v 65 3
v 66 1
v 67 1
v 68 3
v 69 2
v 70 3
v 71 0
v 72 2
v 73 0
v 74 1
v 75 2
v 76 3
v 77 0
v 78 2
v 79 2
v 80 3
v 81 0
v 82 2
v 83 0
v 84 0
v 85 0
v 86 0
v 87 3
v 88 1
v 89 2
v 90 1
v 91 3
v 92 3
v 93 0
v 94 0
v 95 3
v 96 0
v 97 0
v 98 2
v 99 2
v 100 3
v 101 2
v 102 1
v 103 3
v 104 0
v 105 1
v 106 2
v 107 3
v 108 2
v 109 0
v 110 1
v 111 2
v 112 3
v 113 0
v 114 1
v 115 1
v 116 1
v 117 3
v 118 2
v 119 0
v 120 3
v 121 2
v 122 0
v 123 1
v 124 0
v 125 3
v 126 1
v 127 1
v 128 2
v 129 3
v 130 2
v 131 2
v 132 2
v 133 3
v 134 0
v 135 2
v 136 2
v 137 2
v 138 3
v 139 0
v 140 0
v 141 2
v 142 0
v 143 1
v 144 3
v 145 1
v 146 2
v 147 0
v 148 3
v 149 0
v 150 1
v 151 2
v 152 2
v 153 1
v 154 3
v 155 2
v 156 2
v 157 0
v 158 3
v 159 2
v 160 2
v 161 1
